5,12,32,34,45,55,65,76,77,87,88,89,90,93,95,97,99,
10,20,30,34,35,36,37,45,47,55,56,57,58,68,69,78,79,
148
1,3,5,6,9,15,16,19,24,27,28,34,36,39,56,75,78,89,99,
10,13,15,16,17,18,19,22,24,27,28,34,36,39,56,75,78,89,99,
148
1,3,5,6,9,15,16,19,24,27,28,34,36,39,56,75,78,89,91,93,94,96,
10,13,15,16,17,18,19,22,24,27,28,34,36,39,56,75,78,89,94,96,97,98,
148
1,3,5,6,9,15,17,20,23,24,27,28,34,36,39,56,75,78,89,99,
10,13,15,16,17,18,19,20,22,24,27,28,34,36,39,56,75,78,89,99,
148
1,3,5,6,9,10,12,14,15,16,19,24,27,28,34,36,39,56,75,78,89,99,
1,3,6,10,13,15,16,17,18,19,22,24,27,28,34,36,39,56,75,78,89,99,
148
1,3,5,6,9,15,16,19,24,27,28,34,36,39,56,60,64,68,69,70,75,78,89,99,
1,2,4,5,6,10,13,15,16,17,18,19,22,24,27,28,34,36,39,56,75,78,89,99,
148
1,3,5,6,9,15,16,19,24,27,28,34,36,39,56,75,78,89,99,
10,13,15,16,17,18,19,22,24,27,28,34,36,39,56,75,78,89,99,
148
1,3,5,6,9,15,16,19,24,27,28,34,36,39,43,44,45,49,55,56,75,78,89,99,
10,13,15,16,17,18,19,22,24,27,28,34,36,39,43,44,45,46,47,56,75,78,89,99,
148
1,3,5,6,9,15,17,20,23,24,27,28,34,36,39,56,75,78,89,99,
10,13,15,16,17,18,19,20,22,24,27,28,34,36,39,56,75,78,89,99,
148
1,3,5,6,9,15,16,19,24,27,28,34,36,39,56,75,78,89,99,
10,13,15,16,17,18,19,22,24,27,28,34,36,39,56,75,78,89,99,
148